(set-logic QF_S)
(set-option :parse-transducers true)
(set-option :produce-models true)
(define-fun-rec toLower ((x String) (y String)) Bool
   (or (and (= x "") (= y ""))
       (and (not (= x "")) (not (= y ""))
           (= (char.code (str.head y))
               (ite (and (<= 65 (char.code (str.head x)))
                       (<= (char.code (str.head x)) 90))
                   (+ (char.code (str.head x)) 32)
                   (char.code (str.head x))))
           (toLower (str.tail x) (str.tail y))))
)
(declare-fun sym5291 () String)
(declare-fun sym6323 () String)
(declare-fun sym6944 () String)
(declare-fun sym5909 () String)
(declare-fun sym209 () String)
(declare-fun sym4859 () String)
(declare-fun sym2756 () String)
(declare-fun sym4657 () String)
(declare-fun sym5700 () String)
(declare-fun sym2331 () String)
(declare-fun sym4014 () String)
(declare-fun sym2110 () String)
(declare-fun sym1461 () String)
(declare-fun sym3164 () String)
(declare-fun sym161 () String)
(declare-fun sym3380 () String)
(declare-fun sym7024 () String)
(declare-fun sym6530 () String)
(declare-fun sym6116 () String)
(declare-fun sym811 () String)
(declare-fun sym6737 () String)
(declare-fun sym1677 () String)
(declare-fun sym551 () String)
(declare-fun sym2544 () String)
(declare-fun sym2962 () String)
(declare-fun sym3798 () String)
(declare-fun sym1893 () String)
(declare-fun sym4226 () String)
(declare-fun sym1036 () String)
(declare-fun sym3596 () String)
(declare-fun sym4441 () String)
(declare-fun sym1252 () String)
(declare-fun sym5075 () String)
(declare-fun sym5493 () String)
(declare-fun L19  () String)
(declare-fun L23  () String)
(declare-fun L13  () String)
(declare-fun L35  () String)
(declare-fun L9  () String)
(declare-fun L25  () String)
(declare-fun L7  () String)
(declare-fun L41  () String)
(declare-fun L53  () String)
(declare-fun L5  () String)
(declare-fun L65  () String)
(declare-fun L11  () String)
(declare-fun L33  () String)
(declare-fun L3  () String)
(declare-fun L1  () String)
(declare-fun L16  () String)
(declare-fun L38  () String)
(declare-fun L28  () String)
(declare-fun L18  () String)
(declare-fun L12  () String)
(declare-fun L24  () String)
(declare-fun L14  () String)
(declare-fun L48  () String)
(declare-fun L30  () String)
(declare-fun L8  () String)
(declare-fun L20  () String)
(declare-fun L10  () String)
(declare-fun L76  () String)
(declare-fun L6  () String)
(declare-fun L22  () String)
(declare-fun L4  () String)
(declare-fun L2  () String)
(declare-fun L0  () String)
(assert (toLower (str.substr sym2544  0 1) L0 ))
(assert (toLower (str.substr sym5700  0 1) L2 ))
(assert (toLower (str.substr sym4441  0 1) L4 ))
(assert (toLower (str.substr sym4014  0 1) L22 ))
(assert (toLower (str.substr sym2756  0 1) L6 ))
(assert (toLower (str.substr sym2331  0 1) L76 ))
(assert (toLower (str.substr sym6944  0 1) L10 ))
(assert (toLower (str.substr sym5909  0 1) L20 ))
(assert (toLower (str.substr sym811  0 1) L8 ))
(assert (toLower (str.substr sym5291  0 1) L30 ))
(assert (toLower (str.substr sym1036  0 1) L48 ))
(assert (toLower (str.substr sym4226  0 1) L14 ))
(assert (toLower (str.substr sym5493  0 1) L24 ))
(assert (toLower (str.substr sym1252  0 1) L12 ))
(assert (toLower (str.substr sym3596  0 1) L18 ))
(assert (toLower (str.substr sym6737  0 1) L28 ))
(assert (toLower (str.substr sym5075  0 1) L38 ))
(assert (toLower (str.substr sym209  0 1) L16 ))
(assert (toLower (str.substr sym3798  0 1) L1 ))
(assert (toLower (str.substr sym2110  0 1) L3 ))
(assert (toLower (str.substr sym2962  0 1) L33 ))
(assert (toLower (str.substr sym4859  0 1) L11 ))
(assert (toLower (str.substr sym551  0 1) L65 ))
(assert (toLower (str.substr sym6323  0 1) L5 ))
(assert (toLower (str.substr sym4657  0 1) L53 ))
(assert (toLower (str.substr sym6530  0 1) L41 ))
(assert (toLower (str.substr sym7024  0 1) L7 ))
(assert (toLower (str.substr sym3164  0 1) L25 ))
(assert (toLower (str.substr sym1893  0 1) L9 ))
(assert (toLower (str.substr sym3380  0 1) L35 ))
(assert (toLower (str.substr sym1677  0 1) L13 ))
(assert (toLower (str.substr sym1461  0 1) L23 ))
(assert (toLower (str.substr sym6116  0 1) L19 ))

(assert (not (= "" sym5075 )))
(assert (not (= "" sym3380 )))
(assert (not (= L0 "q" )))
(assert (not (= L1 "q" )))
(assert (not (= L2 "k" )))
(assert (not (= L3 "k" )))
(assert (not (= "" sym209 )))
(assert (not (= L4 "p" )))
(assert (= L5 "k" ))
(assert (= L6 "g" ))
(assert (not (= L7 "y" )))
(assert (not (= L8 "q" )))
(assert (not (= L9 "k" )))
(assert (not (= L10 "q" )))
(assert (not (= L11 "q" )))
(assert (not (= L12 "q" )))
(assert (not (= L13 "q" )))
(assert (not (= L14 "l" )))
(assert (not (= L12 "p" )))
(assert (not (= "" L16 )))
(assert (not (= L2 "r" )))
(assert (not (= L18 "q" )))
(assert (not (= L19 "p" )))
(assert (not (= L20 "p" )))
(assert (not (= L2 "q" )))
(assert (not (= L22 "g" )))
(assert (= L23 "g" ))
(assert (= L24 "g" ))
(assert (not (= L25 "p" )))
(assert (not (= "" sym811 )))
(assert (not (= "" sym6323 )))
(assert (not (= "" sym551 )))
(assert (not (= "" sym5700 )))
(assert (not (= "" "y" )))
(assert (not (= L12 "k" )))
(assert (not (= "" "n" )))
(assert (not (= L23 "p" )))
(assert (not (= L28 "p" )))
(assert (not (= L3 "p" )))
(assert (not (= L30 "p" )))
(assert (not (= L23 "q" )))
(assert (= "" "" ))
(assert (not (= L5 "q" )))
(assert (not (= L33 "k" )))
(assert (not (= "" sym1252 )))
(assert (= L11 "g" ))
(assert (not (= L35 "q" )))
(assert (not (= L2 "g" )))
(assert (not (= L0 "k" )))
(assert (not (= L38 "p" )))
(assert (= L2 "h" ))
(assert (not (= "" sym2756 )))
(assert (= L16 "y" ))
(assert (not (= L41 "q" )))
(assert (= L19 "k" ))
(assert (not (= "" sym1677 )))
(assert (not (= L0 "g" )))
(assert (not (= L5 "p" )))
(assert (not (= L9 "p" )))
(assert (not (= L14 "k" )))
(assert (not (= "" "q" )))
(assert (not (= L33 "q" )))
(assert (= L48 "g" ))
(assert (not (= L10 "p" )))
(assert (= L10 "k" ))
(assert (not (= "" sym1036 )))
(assert (= L0 "l" ))
(assert (= L38 "g" ))
(assert (= "" sym161 ))
(assert (= L53 "g" ))
(assert (not (= "" sym7024 )))
(assert (not (= L6 "p" )))
(assert (= L30 "g" ))
(assert (not (= "" sym2544 )))
(assert (not (= L2 "p" )))
(assert (not (= L8 "p" )))
(assert (not (= L41 "p" )))
(assert (not (= L48 "q" )))
(assert (not (= L25 "k" )))
(assert (not (= L25 "q" )))
(assert (not (= "" "y" )))
(assert (= L12 "g" ))
(assert (not (= "" sym4657 )))
(assert (not (= "" sym3164 )))
(assert (not (= L4 "q" )))
(assert (= L8 "g" ))
(assert (not (= L65 "p" )))
(assert (not (= L53 "k" )))
(assert (not (= "" sym3798 )))
(assert (not (= L38 "q" )))
(assert (not (= L24 "k" )))
(assert (not (= L14 "g" )))
(assert (not (= L0 "p" )))
(assert (not (= L65 "q" )))
(assert (not (= "" sym5493 )))
(assert (= L13 "g" ))
(assert (not (= L13 "k" )))
(assert (= L41 "k" ))
(assert (not (= L11 "p" )))
(assert (not (= L76 "q" )))
(assert (not (= "" sym1893 )))
(assert (not (= L1 "p" )))
(assert (not (= L76 "p" )))
(assert (not (= L19 "q" )))
(assert (not (= L1 "k" )))
(assert (= L18 "g" ))
(assert (= L35 "g" ))
(assert (not (= "" sym3596 )))
(assert (not (= L9 "q" )))
(assert (not (= "" sym6737 )))
(assert (not (= L35 "k" )))
(assert (not (= L22 "r" )))
(assert (not (= L3 "g" )))
(assert (not (= "" sym6944 )))
(assert (not (= L6 "k" )))
(assert (not (= L2 "l" )))
(assert (not (= L14 "q" )))
(assert (not (= "n" "y" )))
(assert (= L9 "g" ))
(assert (not (= L8 "k" )))
(assert (= L33 "g" ))
(assert (= L22 "l" ))
(assert (not (= L3 "q" )))
(assert (not (= L22 "p" )))
(assert (not (= L14 "p" )))
(assert (not (= L4 "k" )))
(assert (not (= "" sym1461 )))
(assert (= L20 "k" ))
(assert (not (= "" sym4859 )))
(assert (not (= L35 "p" )))
(assert (= L25 "g" ))
(assert (not (= L20 "q" )))
(assert (not (= "" sym6116 )))
(assert (not (= L48 "k" )))
(assert (not (= L6 "q" )))
(assert (not (= L53 "p" )))
(assert (not (= "" sym2962 )))
(assert (not (= L22 "k" )))
(assert (= L4 "g" ))
(assert (not (= L48 "p" )))
(assert (not (= "" L7 )))
(assert (not (= L28 "q" )))
(assert (not (= L23 "k" )))
(assert (= L14 "h" ))
(assert (not (= L22 "q" )))
(assert (not (= "" sym6530 )))
(assert (not (= "" sym5291 )))
(assert (not (= L0 "r" )))
(assert (not (= L30 "q" )))
(assert (not (= "" sym4441 )))
(assert (= "y" "y" ))
(assert (not (= L24 "q" )))
(assert (not (= "y" "n" )))
(assert (not (= L33 "p" )))
(assert (not (= L24 "p" )))
(assert (not (= "" sym5909 )))
(assert (not (= "" sym4014 )))
(assert (not (= "" sym4226 )))
(assert (not (= L3 "l" )))
(assert (not (= L13 "p" )))
(assert (not (= L38 "k" )))
(assert (not (= L30 "k" )))
(assert (not (= L18 "p" )))
(assert (= L28 "k" ))
(assert (not (= L11 "k" )))
(assert (= L1 "g" ))
(assert (= L76 "k" ))
(assert (not (= "" sym2110 )))
(assert (not (= L53 "q" )))
(assert (= L3 "h" ))
(assert (not (= "" sym2331 )))
(assert (not (= L18 "k" )))
(assert (not (= L14 "r" )))
(assert (not (= L3 "r" )))
(assert (= L65 "k" ))
(check-sat)
(get-model)
(exit)
